p tw 20 53
0 1
0 4
0 2
0 6
0 11
0 10
0 15
0 9
1 8
1 4
1 12
1 10
1 3
2 3
2 13
2 8
2 4
2 6
2 7
2 5
2 12
3 4
3 8
3 10
4 18
4 7
4 8
5 6
5 10
7 8
7 9
7 15
7 19
7 13
7 18
8 17
8 11
8 9
8 14
9 15
10 12
10 14
10 16
11 12
11 16
11 13
11 15
12 14
13 17
13 14
14 17
16 19
16 17
